Mack/Bortfeldt(2008)
Bin-Packing-Problem
BP-RG/SBSBPP/SSSCSP
Testcase-ID	9
Problem-ID	62
no_item_types	20
no_items	1307
CONTAINER_DATA (l,w,h)	432	79	1
ITEMS_DATA:
Type	x	y	z	no_items
1	49	44	1	68
2	51	38	1	55
3	48	34	1	82
4	42	36	1	61
5	47	31	1	79
6	42	34	1	64
7	49	26	1	65
8	36	32	1	65
9	37	31	1	75
10	44	23	1	70
11	43	19	1	67
12	30	25	1	70
13	37	20	1	52
14	45	16	1	61
15	55	13	1	59
16	24	23	1	61
17	24	19	1	63
18	24	18	1	72
19	18	11	1	52
20	12	10	1	66
